(set-option :produce-models true)
(set-logic QF_UF)
(declare-fun p25() Bool)
(declare-fun p32() Bool)
(declare-fun p3() Bool)
(declare-fun p41() Bool)
(declare-fun p8() Bool)
(declare-fun p20() Bool)
(declare-fun p30() Bool)
(declare-fun p23() Bool)
(declare-fun p21() Bool)
(declare-fun p0() Bool)
(declare-fun p4() Bool)
(declare-fun p18() Bool)
(declare-fun p5() Bool)
(declare-fun p14() Bool)
(declare-fun p44() Bool)
(declare-fun p34() Bool)
(declare-fun p40() Bool)
(declare-fun p13() Bool)
(declare-fun p11() Bool)
(declare-fun p38() Bool)
(declare-fun p6() Bool)
(declare-fun p35() Bool)
(declare-fun p37() Bool)
(declare-fun p2() Bool)
(declare-fun p10() Bool)
(declare-fun p26() Bool)
(declare-fun p15() Bool)
(declare-fun p28() Bool)
(declare-fun p17() Bool)
(declare-fun p9() Bool)
(declare-fun p33() Bool)
(declare-fun p45() Bool)
(declare-fun p48() Bool)
(declare-fun p12() Bool)
(declare-fun p39() Bool)
(declare-fun p24() Bool)
(declare-fun p36() Bool)
(declare-fun p16() Bool)
(declare-fun p47() Bool)
(declare-fun p7() Bool)
(declare-fun p49() Bool)
(declare-fun p43() Bool)
(declare-fun p27() Bool)
(declare-fun p19() Bool)
(declare-fun p31() Bool)
(declare-fun p1() Bool)
(declare-fun p42() Bool)
(declare-fun p46() Bool)
(declare-fun p22() Bool)
(declare-fun p29() Bool)
(assert
(and (or (not p25) (not p32) p3) (or p41 (not p8) p25) (or (not p20) p30 (not p23)) (or (not p21) p0 (not p4)) (or p18 p5 (not p14)) (or p41 p32 p44) (or p34 (not p40) (not p25)) (or (not p13) p23 (not p11)) (or (not p38) p6 (not p35)) (or p11 (not p35) (not p8)) (or (not p37) (not p8) p2) (or (not p4) p10 (not p26)) (or (not p14) (not p6) p41) (or (not p4) p15 (not p5)) (or p28 (not p17) p0) (or p9 (not p3) p3) (or p33 p33 p30) (or (not p45) p48 p34) (or (not p12) p21 p18) (or (not p39) (not p8) (not p3)) (or (not p24) (not p6) p10) (or (not p11) p36 p14) (or p41 (not p10) p17) (or p16 p47 (not p6)) (or (not p34) p30 p26) (or p38 (not p7) p44) (or (not p5) p39 (not p49)) (or p20 p49 (not p8)) (or p2 p43 (not p10)) (or p45 p5 p16) (or p17 (not p27) (not p40)) (or (not p30) (not p28) p27) (or p18 (not p11) p27) (or (not p37) p3 (not p16)) (or (not p4) p19 p13) (or p45 (not p33) (not p6)) (or (not p31) p3 (not p0)) (or (not p21) p25 (not p20)) (or (not p40) p34 p37) (or p17 p15 p1) (or p32 p28 (not p42)) (or (not p17) p11 (not p9)) (or p20 (not p42) (not p24)) (or (not p48) p10 (not p8)) (or p5 p6 (not p6)) (or p42 p46 (not p24)) (or (not p47) p38 p34) (or (not p31) (not p31) p26) (or (not p8) p33 (not p42)) (or p46 (not p33) p4) (or (not p28) p26 p12) (or (not p38) p42 (not p5)) (or p18 (not p2) p41) (or p22 (not p30) (not p28)) (or p6 p48 p32) (or (not p42) p2 (not p47)) (or p17 p22 (not p18)) (or (not p29) p22 p11) (or (not p46) p37 (not p27)) (or p39 (not p7) p18) (or p28 p11 p10) (or (not p38) (not p48) p11) (or p14 (not p9) (not p35)) (or (not p4) (not p25) (not p47)) (or p43 p23 (not p36)) (or (not p8) p42 p16) (or p40 (not p7) p23) (or (not p19) p1 p48) (or (not p37) (not p22) p17) (or p16 (not p48) p32) (or p13 (not p17) (not p12)) (or p4 (not p3) p48) (or p6 (not p42) (not p10)) (or p20 (not p31) (not p38)) (or (not p5) (not p15) p20) (or p9 (not p21) (not p35)) (or (not p5) (not p7) (not p43)) (or p38 p26 p3) (or p34 (not p24) p21) (or p43 (not p27) (not p19)) (or (not p41) (not p10) p31) (or (not p24) (not p33) (not p21)) (or (not p49) p42 p30) (or p37 p22 (not p10)) (or p36 p39 p19) (or p20 p26 p41) (or (not p24) (not p6) (not p20)) (or (not p13) (not p2) (not p1)) (or p38 p14 (not p45)) (or p27 (not p16) p8) (or p3 (not p14) (not p22)) (or (not p40) (not p34) p28) (or (not p29) p43 p31) (or p24 p18 (not p15)) (or (not p23) p16 (not p18)) (or (not p27) p18 p37) (or p23 (not p0) (not p24)) (or (not p49) (not p37) (not p29)) (or p15 (not p0) (not p6)) (or (not p1) (not p11) p17) (or (not p43) (not p28) p12) (or (not p24) (not p11) p0) (or p23 p9 (not p32)) (or p41 p0 (not p12)) (or p38 (not p27) (not p28)) (or p5 p18 p14) (or (not p39) (not p11) (not p41)) (or (not p45) (not p26) (not p8)) (or (not p20) (not p3) (not p9)) (or p5 (not p33) p7) (or p8 p1 (not p27)) (or p13 p5 (not p20)) (or (not p16) p7 (not p11)) (or (not p12) (not p31) (not p16)) (or p36 (not p19) p9) (or p2 (not p15) p45) (or p31 (not p23) p40) (or p21 (not p19) (not p8)) (or p18 p48 p25) (or (not p30) (not p48) p20) (or p16 (not p44) (not p3)) (or p9 p12 (not p39)) (or (not p41) (not p20) (not p28)) (or p16 (not p18) p19) (or p25 p41 (not p49)) (or p46 (not p29) (not p21)) (or (not p9) (not p47) p45) (or (not p12) (not p36) (not p40)) (or (not p49) p39 (not p33)) (or (not p14) p37 (not p18)) (or (not p49) p46 (not p38)) (or p15 (not p48) p27) (or (not p21) (not p9) p16) (or (not p46) p21 (not p45)) (or (not p3) (not p24) (not p3)) (or p15 (not p18) (not p17)) (or p6 (not p36) (not p27)) (or p35 (not p33) (not p2)) (or p48 (not p1) p22) (or p20 p13 (not p32)) (or (not p7) (not p47) (not p21)) (or p41 p19 (not p28)) (or (not p46) p28 (not p46)) (or p30 (not p32) p14) (or p44 p37 p25) (or (not p37) (not p14) p14) (or (not p25) (not p47) p1) (or p43 (not p23) p33) (or p10 p46 (not p11)) (or (not p34) (not p49) p25) (or (not p5) p17 (not p21)) (or p35 (not p8) (not p31)) (or p45 p5 p20) (or p35 (not p18) p8) (or p6 (not p12) p26) (or (not p27) p32 (not p3)) (or (not p24) p26 p18) (or p19 (not p3) p22) (or p13 p17 p10) (or p21 p9 (not p30)) (or (not p49) (not p4) (not p44)) (or (not p18) (not p5) p33) (or p3 (not p45) p17) (or (not p22) (not p12) p11) (or p18 p7 (not p16)) (or (not p14) p48 (not p30)) (or p32 (not p23) (not p27)) (or (not p7) p31 (not p38)) (or (not p27) p38 (not p9)) (or p46 (not p19) p7) (or (not p43) p44 (not p20)) (or p47 (not p37) (not p44)) (or p18 (not p31) p1) (or p15 p21 p39) (or (not p43) p1 p41) (or (not p46) p26 p41) (or p32 (not p39) (not p40)) (or p49 (not p9) (not p23)) (or (not p27) (not p21) p48) (or (not p19) p42 p35) (or (not p15) (not p8) p39) (or (not p15) p36 (not p29)) (or p34 (not p31) (not p38)) (or (not p18) p22 (not p34)) (or p13 (not p11) (not p17)) (or (not p26) (not p41) (not p7)) (or (not p10) p7 (not p9)) (or (not p9) p4 (not p0)) (or p31 (not p34) p17) (or (not p21) (not p28) p25) (or p14 p23 p3) (or (not p9) (not p16) p29) (or p48 p42 p17) (or (not p22) (not p4) p32) (or (not p33) p39 (not p42)) (or p46 (not p30) (not p2)) (or (not p25) (not p36) (not p38)) (or (not p38) p22 p5) (or p41 p24 p28) (or p14 p13 (not p19)) (or (not p20) (not p6) (not p38)) (or (not p9) p10 (not p16)) (or (not p14) p8 p20) (or (not p34) (not p43) p20) (or (not p9) p4 (not p16)) (or p0 p32 (not p29)) (or p13 p40 p7) (or p18 p37 p15) (or p14 (not p14) (not p15)) (or (not p35) (not p36) p7))
)
(check-sat)
(get-model)
